c colouring generated by benchmark framework
p edge 450 8260
v 1 14
v 2 8
v 3 1
v 4 21
v 5 16
v 6 4
v 7 15
v 8 6
v 9 9
v 10 11
v 11 7
v 12 9
v 13 3
v 14 13
v 15 19
v 16 19
v 17 3
v 18 20
v 19 14
v 20 11
v 21 0
v 22 11
v 23 1
v 24 0
v 25 2
v 26 22
v 27 0
v 28 2
v 29 1
v 30 2
v 31 8
v 32 19
v 33 10
v 34 0
v 35 19
v 36 2
v 37 4
v 38 20
v 39 17
v 40 7
v 41 13
v 42 23
v 43 19
v 44 13
v 45 9
v 46 23
v 47 3
v 48 15
v 49 8
v 50 2
v 51 11
v 52 0
v 53 7
v 54 7
v 55 8
v 56 3
v 57 7
v 58 16
v 59 13
v 60 2
v 61 20
v 62 19
v 63 19
v 64 11
v 65 7
v 66 3
v 67 24
v 68 9
v 69 17
v 70 22
v 71 3
v 72 23
v 73 8
v 74 4
v 75 7
v 76 11
v 77 9
v 78 13
v 79 22
v 80 0
v 81 1
v 82 13
v 83 19
v 84 2
v 85 1
v 86 22
v 87 0
v 88 9
v 89 9
v 90 24
v 91 23
v 92 12
v 93 1
v 94 6
v 95 0
v 96 17
v 97 8
v 98 4
v 99 20
v 100 6
v 101 4
v 102 14
v 103 2
v 104 14
v 105 19
v 106 20
v 107 0
v 108 12
v 109 11
v 110 5
v 111 0
v 112 14
v 113 0
v 114 9
v 115 24
v 116 8
v 117 0
v 118 13
v 119 22
v 120 18
v 121 10
v 122 5
v 123 19
v 124 21
v 125 17
v 126 8
v 127 11
v 128 15
v 129 17
v 130 15
v 131 8
v 132 17
v 133 9
v 134 23
v 135 1
v 136 6
v 137 0
v 138 19
v 139 3
v 140 7
v 141 11
v 142 16
v 143 10
v 144 2
v 145 20
v 146 0
v 147 5
v 148 13
v 149 24
v 150 8
v 151 3
v 152 3
v 153 13
v 154 9
v 155 4
v 156 12
v 157 13
v 158 12
v 159 24
v 160 5
v 161 6
v 162 6
v 163 5
v 164 9
v 165 15
v 166 1
v 167 7
v 168 24
v 169 20
v 170 18
v 171 1
v 172 7
v 173 21
v 174 0
v 175 8
v 176 11
v 177 23
v 178 24
v 179 7
v 180 0
v 181 3
v 182 0
v 183 17
v 184 18
v 185 2
v 186 4
v 187 7
v 188 9
v 189 11
v 190 9
v 191 4
v 192 13
v 193 16
v 194 4
v 195 12
v 196 5
v 197 5
v 198 5
v 199 20
v 200 15
v 201 1
v 202 2
v 203 23
v 204 20
v 205 15
v 206 3
v 207 0
v 208 2
v 209 13
v 210 1
v 211 0
v 212 18
v 213 10
v 214 0
v 215 12
v 216 21
v 217 3
v 218 10
v 219 18
v 220 9
v 221 7
v 222 15
v 223 0
v 224 4
v 225 8
v 226 6
v 227 20
v 228 21
v 229 16
v 230 3
v 231 5
v 232 9
v 233 12
v 234 24
v 235 0
v 236 3
v 237 9
v 238 20
v 239 17
v 240 15
v 241 1
v 242 0
v 243 8
v 244 6
v 245 18
v 246 6
v 247 24
v 248 23
v 249 4
v 250 24
v 251 11
v 252 4
v 253 1
v 254 23
v 255 5
v 256 10
v 257 14
v 258 7
v 259 15
v 260 4
v 261 20
v 262 21
v 263 1
v 264 14
v 265 20
v 266 24
v 267 21
v 268 0
v 269 24
v 270 8
v 271 18
v 272 13
v 273 18
v 274 1
v 275 15
v 276 13
v 277 18
v 278 3
v 279 10
v 280 9
v 281 2
v 282 1
v 283 4
v 284 22
v 285 16
v 286 21
v 287 10
v 288 1
v 289 3
v 290 24
v 291 3
v 292 22
v 293 20
v 294 23
v 295 10
v 296 11
v 297 5
v 298 6
v 299 1
v 300 5
v 301 2
v 302 13
v 303 16
v 304 23
v 305 5
v 306 23
v 307 4
v 308 18
v 309 16
v 310 13
v 311 6
v 312 11
v 313 8
v 314 16
v 315 1
v 316 2
v 317 21
v 318 13
v 319 14
v 320 9
v 321 16
v 322 24
v 323 12
v 324 10
v 325 12
v 326 1
v 327 0
v 328 7
v 329 10
v 330 19
v 331 6
v 332 21
v 333 17
v 334 5
v 335 6
v 336 6
v 337 8
v 338 15
v 339 21
v 340 15
v 341 22
v 342 10
v 343 15
v 344 2
v 345 6
v 346 12
v 347 22
v 348 22
v 349 9
v 350 15
v 351 11
v 352 20
v 353 13
v 354 11
v 355 6
v 356 10
v 357 0
v 358 22
v 359 1
v 360 17
v 361 16
v 362 17
v 363 7
v 364 10
v 365 19
v 366 12
v 367 14
v 368 16
v 369 10
v 370 10
v 371 10
v 372 18
v 373 20
v 374 20
v 375 12
v 376 3
v 377 24
v 378 18
v 379 8
v 380 16
v 381 23
v 382 7
v 383 19
v 384 23
v 385 10
v 386 6
v 387 0
v 388 23
v 389 7
v 390 4
v 391 5
v 392 3
v 393 1
v 394 16
v 395 17
v 396 2
v 397 23
v 398 14
v 399 13
v 400 22
v 401 18
v 402 10
v 403 5
v 404 23
v 405 18
v 406 16
v 407 22
v 408 7
v 409 14
v 410 6
v 411 2
v 412 2
v 413 19
v 414 4
v 415 22
v 416 8
v 417 7
v 418 20
v 419 22
v 420 0
v 421 6
v 422 1
v 423 22
v 424 19
v 425 14
v 426 12
v 427 4
v 428 5
v 429 3
v 430 21
v 431 17
v 432 3
v 433 0
v 434 22
v 435 17
v 436 8
v 437 4
v 438 4
v 439 0
v 440 23
v 441 8
v 442 21
v 443 23
v 444 15
v 445 14
v 446 13
v 447 1
v 448 6
v 449 0
v 450 18
